(declare-const a Real)
(declare-const b Real)
(declare-const c Real)
(assert (= (+ a b c) 1))
(assert (> a 0))
(assert (> b 0))
(assert (> c 0))
(assert (not (<= (+ 1 (* -1 (pow (+ a (* b c)) (/ 1 2))) (* -1 (pow (+ b (* a c)) (/ 1 2))) (* -1 (pow (+ c (* a b)) (/ 1 2))) (* (pow (+ (* a (pow c (/ 1 2))) (* (/ 1 2) c (+ 1 b))) (pow 2 -1)) (pow (+ (/ 1 2) (pow c (/ 1 2)) (* (/ 1 2) b)) (/ 1 2))) (* (/ 1 32) (+ 1 b) (+ 5 (* 8 a) (* 16 (pow a 2))))) 0)))
(check-sat)
(get-model)
(exit)